p cnf 22 18
17 7 15 2 -6 -1 -5 8 9 22 11 4 -3 12 -20 -19 18 21 0
7 -17 -1 -6 0
18 -5 -9 0
-10 -4 -2 -1 0
14 -18 -22 0
-3 -13 2 9 21 0
10 -6 13 11 19 21 -15 -2 7 -3 22 14 -16 -4 0
19 8 17 12 -16 9 -11 18 -20 15 -10 0
16 -7 -11 0
14 -16 -22 -11 -20 -7 8 4 -6 -21 -5 -3 -13 15 -9 0
-6 5 0
12 -8 -4 15 22 11 0
6 -13 8 0
8 10 -16 0
-10 -17 -15 3 -13 8 -16 18 7 6 0
20 8 -13 -21 0
21 8 -15 1 -6 14 -2 -19 12 0
-13 -9 -10 2 -19 5 14 3 8 -16 12 7 0
